\ LP format - for model browsing. Use MPS format to capture full model detail.
Minimize
  p0 + p1 + p2 + p3 + p4 + p5 + p6
Subject To
 R0: x0,1_4 + x0,2_4 + x0,3_4 + x0,4_4 + x0,5_4 + x0,6_4 + x1,2_4 + x1,3_4
   + x1,4_4 + x1,5_4 + x1,6_4 + x2,3_4 + x2,4_4 + x2,5_4 + x2,6_4 + x3,4_4
   + x3,5_4 + x3,6_4 + x4,5_4 + x4,6_4 + x5,6_4 = 1
 R1: x0,1_9 + x0,2_9 + x0,3_9 + x0,4_9 + x0,5_9 + x0,6_9 + x1,2_9 + x1,3_9
   + x1,4_9 + x1,5_9 + x1,6_9 + x2,3_9 + x2,4_9 + x2,5_9 + x2,6_9 + x3,4_9
   + x3,5_9 + x3,6_9 + x4,5_9 + x4,6_9 + x5,6_9 = 1
 R2: x0,1_11 + x0,2_11 + x0,3_11 + x0,4_11 + x0,5_11 + x0,6_11 + x1,2_11
   + x1,3_11 + x1,4_11 + x1,5_11 + x1,6_11 + x2,3_11 + x2,4_11 + x2,5_11
   + x2,6_11 + x3,4_11 + x3,5_11 + x3,6_11 + x4,5_11 + x4,6_11 + x5,6_11
   = 1
 R3: x0,1_15 + x0,2_15 + x0,3_15 + x0,4_15 + x0,5_15 + x0,6_15 + x1,2_15
   + x1,3_15 + x1,4_15 + x1,5_15 + x1,6_15 + x2,3_15 + x2,4_15 + x2,5_15
   + x2,6_15 + x3,4_15 + x3,5_15 + x3,6_15 + x4,5_15 + x4,6_15 + x5,6_15
   = 1
 R4: x0,1_22 + x0,2_22 + x0,3_22 + x0,4_22 + x0,5_22 + x0,6_22 + x1,2_22
   + x1,3_22 + x1,4_22 + x1,5_22 + x1,6_22 + x2,3_22 + x2,4_22 + x2,5_22
   + x2,6_22 + x3,4_22 + x3,5_22 + x3,6_22 + x4,5_22 + x4,6_22 + x5,6_22
   = 1
 R5: x0,1_26 + x0,2_26 + x0,3_26 + x0,4_26 + x0,5_26 + x0,6_26 + x1,2_26
   + x1,3_26 + x1,4_26 + x1,5_26 + x1,6_26 + x2,3_26 + x2,4_26 + x2,5_26
   + x2,6_26 + x3,4_26 + x3,5_26 + x3,6_26 + x4,5_26 + x4,6_26 + x5,6_26
   = 1
 R6: x0,1_35 + x0,2_35 + x0,3_35 + x0,4_35 + x0,5_35 + x0,6_35 + x1,2_35
   + x1,3_35 + x1,4_35 + x1,5_35 + x1,6_35 + x2,3_35 + x2,4_35 + x2,5_35
   + x2,6_35 + x3,4_35 + x3,5_35 + x3,6_35 + x4,5_35 + x4,6_35 + x5,6_35
   = 1
 R7: x0,1_48 + x0,2_48 + x0,3_48 + x0,4_48 + x0,5_48 + x0,6_48 + x1,2_48
   + x1,3_48 + x1,4_48 + x1,5_48 + x1,6_48 + x2,3_48 + x2,4_48 + x2,5_48
   + x2,6_48 + x3,4_48 + x3,5_48 + x3,6_48 + x4,5_48 + x4,6_48 + x5,6_48
   = 1
 R8: x0,1_57 + x0,2_57 + x0,3_57 + x0,4_57 + x0,5_57 + x0,6_57 + x1,2_57
   + x1,3_57 + x1,4_57 + x1,5_57 + x1,6_57 + x2,3_57 + x2,4_57 + x2,5_57
   + x2,6_57 + x3,4_57 + x3,5_57 + x3,6_57 + x4,5_57 + x4,6_57 + x5,6_57
   = 1
 R9: x0,1_58 + x0,2_58 + x0,3_58 + x0,4_58 + x0,5_58 + x0,6_58 + x1,2_58
   + x1,3_58 + x1,4_58 + x1,5_58 + x1,6_58 + x2,3_58 + x2,4_58 + x2,5_58
   + x2,6_58 + x3,4_58 + x3,5_58 + x3,6_58 + x4,5_58 + x4,6_58 + x5,6_58
   = 1
 R10: x0,1_73 + x0,2_73 + x0,3_73 + x0,4_73 + x0,5_73 + x0,6_73 + x1,2_73
   + x1,3_73 + x1,4_73 + x1,5_73 + x1,6_73 + x2,3_73 + x2,4_73 + x2,5_73
   + x2,6_73 + x3,4_73 + x3,5_73 + x3,6_73 + x4,5_73 + x4,6_73 + x5,6_73
   = 1
 R11: x0,1_77 + x0,2_77 + x0,3_77 + x0,4_77 + x0,5_77 + x0,6_77 + x1,2_77
   + x1,3_77 + x1,4_77 + x1,5_77 + x1,6_77 + x2,3_77 + x2,4_77 + x2,5_77
   + x2,6_77 + x3,4_77 + x3,5_77 + x3,6_77 + x4,5_77 + x4,6_77 + x5,6_77
   = 1
 R12: x0,1_82 + x0,2_82 + x0,3_82 + x0,4_82 + x0,5_82 + x0,6_82 + x1,2_82
   + x1,3_82 + x1,4_82 + x1,5_82 + x1,6_82 + x2,3_82 + x2,4_82 + x2,5_82
   + x2,6_82 + x3,4_82 + x3,5_82 + x3,6_82 + x4,5_82 + x4,6_82 + x5,6_82
   = 1
 R13: x0,1_86 + x0,2_86 + x0,3_86 + x0,4_86 + x0,5_86 + x0,6_86 + x1,2_86
   + x1,3_86 + x1,4_86 + x1,5_86 + x1,6_86 + x2,3_86 + x2,4_86 + x2,5_86
   + x2,6_86 + x3,4_86 + x3,5_86 + x3,6_86 + x4,5_86 + x4,6_86 + x5,6_86
   = 1
 R14: x0,1_4 + x0,1_9 + x0,1_11 + x0,1_15 + x0,1_22 + x0,1_26 + x0,1_35
   + x0,1_48 + x0,1_57 + x0,1_58 + x0,1_73 + x0,1_77 + x0,1_82 + x0,1_86
   <= 1
 R15: x0,2_4 + x0,2_9 + x0,2_11 + x0,2_15 + x0,2_22 + x0,2_26 + x0,2_35
   + x0,2_48 + x0,2_57 + x0,2_58 + x0,2_73 + x0,2_77 + x0,2_82 + x0,2_86
   <= 1
 R16: x0,3_4 + x0,3_9 + x0,3_11 + x0,3_15 + x0,3_22 + x0,3_26 + x0,3_35
   + x0,3_48 + x0,3_57 + x0,3_58 + x0,3_73 + x0,3_77 + x0,3_82 + x0,3_86
   <= 1
 R17: x0,4_4 + x0,4_9 + x0,4_11 + x0,4_15 + x0,4_22 + x0,4_26 + x0,4_35
   + x0,4_48 + x0,4_57 + x0,4_58 + x0,4_73 + x0,4_77 + x0,4_82 + x0,4_86
   <= 1
 R18: x0,5_4 + x0,5_9 + x0,5_11 + x0,5_15 + x0,5_22 + x0,5_26 + x0,5_35
   + x0,5_48 + x0,5_57 + x0,5_58 + x0,5_73 + x0,5_77 + x0,5_82 + x0,5_86
   <= 1
 R19: x0,6_4 + x0,6_9 + x0,6_11 + x0,6_15 + x0,6_22 + x0,6_26 + x0,6_35
   + x0,6_48 + x0,6_57 + x0,6_58 + x0,6_73 + x0,6_77 + x0,6_82 + x0,6_86
   <= 1
 R20: x1,2_4 + x1,2_9 + x1,2_11 + x1,2_15 + x1,2_22 + x1,2_26 + x1,2_35
   + x1,2_48 + x1,2_57 + x1,2_58 + x1,2_73 + x1,2_77 + x1,2_82 + x1,2_86
   <= 1
 R21: x1,3_4 + x1,3_9 + x1,3_11 + x1,3_15 + x1,3_22 + x1,3_26 + x1,3_35
   + x1,3_48 + x1,3_57 + x1,3_58 + x1,3_73 + x1,3_77 + x1,3_82 + x1,3_86
   <= 1
 R22: x1,4_4 + x1,4_9 + x1,4_11 + x1,4_15 + x1,4_22 + x1,4_26 + x1,4_35
   + x1,4_48 + x1,4_57 + x1,4_58 + x1,4_73 + x1,4_77 + x1,4_82 + x1,4_86
   <= 1
 R23: x1,5_4 + x1,5_9 + x1,5_11 + x1,5_15 + x1,5_22 + x1,5_26 + x1,5_35
   + x1,5_48 + x1,5_57 + x1,5_58 + x1,5_73 + x1,5_77 + x1,5_82 + x1,5_86
   <= 1
 R24: x1,6_4 + x1,6_9 + x1,6_11 + x1,6_15 + x1,6_22 + x1,6_26 + x1,6_35
   + x1,6_48 + x1,6_57 + x1,6_58 + x1,6_73 + x1,6_77 + x1,6_82 + x1,6_86
   <= 1
 R25: x2,3_4 + x2,3_9 + x2,3_11 + x2,3_15 + x2,3_22 + x2,3_26 + x2,3_35
   + x2,3_48 + x2,3_57 + x2,3_58 + x2,3_73 + x2,3_77 + x2,3_82 + x2,3_86
   <= 1
 R26: x2,4_4 + x2,4_9 + x2,4_11 + x2,4_15 + x2,4_22 + x2,4_26 + x2,4_35
   + x2,4_48 + x2,4_57 + x2,4_58 + x2,4_73 + x2,4_77 + x2,4_82 + x2,4_86
   <= 1
 R27: x2,5_4 + x2,5_9 + x2,5_11 + x2,5_15 + x2,5_22 + x2,5_26 + x2,5_35
   + x2,5_48 + x2,5_57 + x2,5_58 + x2,5_73 + x2,5_77 + x2,5_82 + x2,5_86
   <= 1
 R28: x2,6_4 + x2,6_9 + x2,6_11 + x2,6_15 + x2,6_22 + x2,6_26 + x2,6_35
   + x2,6_48 + x2,6_57 + x2,6_58 + x2,6_73 + x2,6_77 + x2,6_82 + x2,6_86
   <= 1
 R29: x3,4_4 + x3,4_9 + x3,4_11 + x3,4_15 + x3,4_22 + x3,4_26 + x3,4_35
   + x3,4_48 + x3,4_57 + x3,4_58 + x3,4_73 + x3,4_77 + x3,4_82 + x3,4_86
   <= 1
 R30: x3,5_4 + x3,5_9 + x3,5_11 + x3,5_15 + x3,5_22 + x3,5_26 + x3,5_35
   + x3,5_48 + x3,5_57 + x3,5_58 + x3,5_73 + x3,5_77 + x3,5_82 + x3,5_86
   <= 1
 R31: x3,6_4 + x3,6_9 + x3,6_11 + x3,6_15 + x3,6_22 + x3,6_26 + x3,6_35
   + x3,6_48 + x3,6_57 + x3,6_58 + x3,6_73 + x3,6_77 + x3,6_82 + x3,6_86
   <= 1
 R32: x4,5_4 + x4,5_9 + x4,5_11 + x4,5_15 + x4,5_22 + x4,5_26 + x4,5_35
   + x4,5_48 + x4,5_57 + x4,5_58 + x4,5_73 + x4,5_77 + x4,5_82 + x4,5_86
   <= 1
 R33: x4,6_4 + x4,6_9 + x4,6_11 + x4,6_15 + x4,6_22 + x4,6_26 + x4,6_35
   + x4,6_48 + x4,6_57 + x4,6_58 + x4,6_73 + x4,6_77 + x4,6_82 + x4,6_86
   <= 1
 R34: x5,6_4 + x5,6_9 + x5,6_11 + x5,6_15 + x5,6_22 + x5,6_26 + x5,6_35
   + x5,6_48 + x5,6_57 + x5,6_58 + x5,6_73 + x5,6_77 + x5,6_82 + x5,6_86
   <= 1
 R35: p0 - p1 <= -1
 R36: - 4 x0,1_4 - p0 + p1 >= 0
 R37: 603 x0,1_4 - p0 + p1 <= 607
 R38: - 9 x0,1_9 - p0 + p1 >= 0
 R39: 603 x0,1_9 - p0 + p1 <= 612
 R40: - 11 x0,1_11 - p0 + p1 >= 0
 R41: 603 x0,1_11 - p0 + p1 <= 614
 R42: - 15 x0,1_15 - p0 + p1 >= 0
 R43: 603 x0,1_15 - p0 + p1 <= 618
 R44: - 22 x0,1_22 - p0 + p1 >= 0
 R45: 603 x0,1_22 - p0 + p1 <= 625
 R46: - 26 x0,1_26 - p0 + p1 >= 0
 R47: 603 x0,1_26 - p0 + p1 <= 629
 R48: - 35 x0,1_35 - p0 + p1 >= 0
 R49: 603 x0,1_35 - p0 + p1 <= 638
 R50: - 48 x0,1_48 - p0 + p1 >= 0
 R51: 603 x0,1_48 - p0 + p1 <= 651
 R52: - 57 x0,1_57 - p0 + p1 >= 0
 R53: 603 x0,1_57 - p0 + p1 <= 660
 R54: - 58 x0,1_58 - p0 + p1 >= 0
 R55: 603 x0,1_58 - p0 + p1 <= 661
 R56: - 73 x0,1_73 - p0 + p1 >= 0
 R57: 603 x0,1_73 - p0 + p1 <= 676
 R58: - 77 x0,1_77 - p0 + p1 >= 0
 R59: 603 x0,1_77 - p0 + p1 <= 680
 R60: - 82 x0,1_82 - p0 + p1 >= 0
 R61: 603 x0,1_82 - p0 + p1 <= 685
 R62: - 86 x0,1_86 - p0 + p1 >= 0
 R63: 603 x0,1_86 - p0 + p1 <= 689
 R64: p0 - p2 <= -1
 R65: - 4 x0,2_4 - p0 + p2 >= 0
 R66: 603 x0,2_4 - p0 + p2 <= 607
 R67: - 9 x0,2_9 - p0 + p2 >= 0
 R68: 603 x0,2_9 - p0 + p2 <= 612
 R69: - 11 x0,2_11 - p0 + p2 >= 0
 R70: 603 x0,2_11 - p0 + p2 <= 614
 R71: - 15 x0,2_15 - p0 + p2 >= 0
 R72: 603 x0,2_15 - p0 + p2 <= 618
 R73: - 22 x0,2_22 - p0 + p2 >= 0
 R74: 603 x0,2_22 - p0 + p2 <= 625
 R75: - 26 x0,2_26 - p0 + p2 >= 0
 R76: 603 x0,2_26 - p0 + p2 <= 629
 R77: - 35 x0,2_35 - p0 + p2 >= 0
 R78: 603 x0,2_35 - p0 + p2 <= 638
 R79: - 48 x0,2_48 - p0 + p2 >= 0
 R80: 603 x0,2_48 - p0 + p2 <= 651
 R81: - 57 x0,2_57 - p0 + p2 >= 0
 R82: 603 x0,2_57 - p0 + p2 <= 660
 R83: - 58 x0,2_58 - p0 + p2 >= 0
 R84: 603 x0,2_58 - p0 + p2 <= 661
 R85: - 73 x0,2_73 - p0 + p2 >= 0
 R86: 603 x0,2_73 - p0 + p2 <= 676
 R87: - 77 x0,2_77 - p0 + p2 >= 0
 R88: 603 x0,2_77 - p0 + p2 <= 680
 R89: - 82 x0,2_82 - p0 + p2 >= 0
 R90: 603 x0,2_82 - p0 + p2 <= 685
 R91: - 86 x0,2_86 - p0 + p2 >= 0
 R92: 603 x0,2_86 - p0 + p2 <= 689
 R93: p0 - p3 <= -1
 R94: - 4 x0,3_4 - p0 + p3 >= 0
 R95: 603 x0,3_4 - p0 + p3 <= 607
 R96: - 9 x0,3_9 - p0 + p3 >= 0
 R97: 603 x0,3_9 - p0 + p3 <= 612
 R98: - 11 x0,3_11 - p0 + p3 >= 0
 R99: 603 x0,3_11 - p0 + p3 <= 614
 R100: - 15 x0,3_15 - p0 + p3 >= 0
 R101: 603 x0,3_15 - p0 + p3 <= 618
 R102: - 22 x0,3_22 - p0 + p3 >= 0
 R103: 603 x0,3_22 - p0 + p3 <= 625
 R104: - 26 x0,3_26 - p0 + p3 >= 0
 R105: 603 x0,3_26 - p0 + p3 <= 629
 R106: - 35 x0,3_35 - p0 + p3 >= 0
 R107: 603 x0,3_35 - p0 + p3 <= 638
 R108: - 48 x0,3_48 - p0 + p3 >= 0
 R109: 603 x0,3_48 - p0 + p3 <= 651
 R110: - 57 x0,3_57 - p0 + p3 >= 0
 R111: 603 x0,3_57 - p0 + p3 <= 660
 R112: - 58 x0,3_58 - p0 + p3 >= 0
 R113: 603 x0,3_58 - p0 + p3 <= 661
 R114: - 73 x0,3_73 - p0 + p3 >= 0
 R115: 603 x0,3_73 - p0 + p3 <= 676
 R116: - 77 x0,3_77 - p0 + p3 >= 0
 R117: 603 x0,3_77 - p0 + p3 <= 680
 R118: - 82 x0,3_82 - p0 + p3 >= 0
 R119: 603 x0,3_82 - p0 + p3 <= 685
 R120: - 86 x0,3_86 - p0 + p3 >= 0
 R121: 603 x0,3_86 - p0 + p3 <= 689
 R122: p0 - p4 <= -1
 R123: - 4 x0,4_4 - p0 + p4 >= 0
 R124: 603 x0,4_4 - p0 + p4 <= 607
 R125: - 9 x0,4_9 - p0 + p4 >= 0
 R126: 603 x0,4_9 - p0 + p4 <= 612
 R127: - 11 x0,4_11 - p0 + p4 >= 0
 R128: 603 x0,4_11 - p0 + p4 <= 614
 R129: - 15 x0,4_15 - p0 + p4 >= 0
 R130: 603 x0,4_15 - p0 + p4 <= 618
 R131: - 22 x0,4_22 - p0 + p4 >= 0
 R132: 603 x0,4_22 - p0 + p4 <= 625
 R133: - 26 x0,4_26 - p0 + p4 >= 0
 R134: 603 x0,4_26 - p0 + p4 <= 629
 R135: - 35 x0,4_35 - p0 + p4 >= 0
 R136: 603 x0,4_35 - p0 + p4 <= 638
 R137: - 48 x0,4_48 - p0 + p4 >= 0
 R138: 603 x0,4_48 - p0 + p4 <= 651
 R139: - 57 x0,4_57 - p0 + p4 >= 0
 R140: 603 x0,4_57 - p0 + p4 <= 660
 R141: - 58 x0,4_58 - p0 + p4 >= 0
 R142: 603 x0,4_58 - p0 + p4 <= 661
 R143: - 73 x0,4_73 - p0 + p4 >= 0
 R144: 603 x0,4_73 - p0 + p4 <= 676
 R145: - 77 x0,4_77 - p0 + p4 >= 0
 R146: 603 x0,4_77 - p0 + p4 <= 680
 R147: - 82 x0,4_82 - p0 + p4 >= 0
 R148: 603 x0,4_82 - p0 + p4 <= 685
 R149: - 86 x0,4_86 - p0 + p4 >= 0
 R150: 603 x0,4_86 - p0 + p4 <= 689
 R151: p0 - p5 <= -1
 R152: - 4 x0,5_4 - p0 + p5 >= 0
 R153: 603 x0,5_4 - p0 + p5 <= 607
 R154: - 9 x0,5_9 - p0 + p5 >= 0
 R155: 603 x0,5_9 - p0 + p5 <= 612
 R156: - 11 x0,5_11 - p0 + p5 >= 0
 R157: 603 x0,5_11 - p0 + p5 <= 614
 R158: - 15 x0,5_15 - p0 + p5 >= 0
 R159: 603 x0,5_15 - p0 + p5 <= 618
 R160: - 22 x0,5_22 - p0 + p5 >= 0
 R161: 603 x0,5_22 - p0 + p5 <= 625
 R162: - 26 x0,5_26 - p0 + p5 >= 0
 R163: 603 x0,5_26 - p0 + p5 <= 629
 R164: - 35 x0,5_35 - p0 + p5 >= 0
 R165: 603 x0,5_35 - p0 + p5 <= 638
 R166: - 48 x0,5_48 - p0 + p5 >= 0
 R167: 603 x0,5_48 - p0 + p5 <= 651
 R168: - 57 x0,5_57 - p0 + p5 >= 0
 R169: 603 x0,5_57 - p0 + p5 <= 660
 R170: - 58 x0,5_58 - p0 + p5 >= 0
 R171: 603 x0,5_58 - p0 + p5 <= 661
 R172: - 73 x0,5_73 - p0 + p5 >= 0
 R173: 603 x0,5_73 - p0 + p5 <= 676
 R174: - 77 x0,5_77 - p0 + p5 >= 0
 R175: 603 x0,5_77 - p0 + p5 <= 680
 R176: - 82 x0,5_82 - p0 + p5 >= 0
 R177: 603 x0,5_82 - p0 + p5 <= 685
 R178: - 86 x0,5_86 - p0 + p5 >= 0
 R179: 603 x0,5_86 - p0 + p5 <= 689
 R180: p0 - p6 <= -1
 R181: - 4 x0,6_4 - p0 + p6 >= 0
 R182: 603 x0,6_4 - p0 + p6 <= 607
 R183: - 9 x0,6_9 - p0 + p6 >= 0
 R184: 603 x0,6_9 - p0 + p6 <= 612
 R185: - 11 x0,6_11 - p0 + p6 >= 0
 R186: 603 x0,6_11 - p0 + p6 <= 614
 R187: - 15 x0,6_15 - p0 + p6 >= 0
 R188: 603 x0,6_15 - p0 + p6 <= 618
 R189: - 22 x0,6_22 - p0 + p6 >= 0
 R190: 603 x0,6_22 - p0 + p6 <= 625
 R191: - 26 x0,6_26 - p0 + p6 >= 0
 R192: 603 x0,6_26 - p0 + p6 <= 629
 R193: - 35 x0,6_35 - p0 + p6 >= 0
 R194: 603 x0,6_35 - p0 + p6 <= 638
 R195: - 48 x0,6_48 - p0 + p6 >= 0
 R196: 603 x0,6_48 - p0 + p6 <= 651
 R197: - 57 x0,6_57 - p0 + p6 >= 0
 R198: 603 x0,6_57 - p0 + p6 <= 660
 R199: - 58 x0,6_58 - p0 + p6 >= 0
 R200: 603 x0,6_58 - p0 + p6 <= 661
 R201: - 73 x0,6_73 - p0 + p6 >= 0
 R202: 603 x0,6_73 - p0 + p6 <= 676
 R203: - 77 x0,6_77 - p0 + p6 >= 0
 R204: 603 x0,6_77 - p0 + p6 <= 680
 R205: - 82 x0,6_82 - p0 + p6 >= 0
 R206: 603 x0,6_82 - p0 + p6 <= 685
 R207: - 86 x0,6_86 - p0 + p6 >= 0
 R208: 603 x0,6_86 - p0 + p6 <= 689
 R209: p1 - p2 <= -1
 R210: - 4 x1,2_4 - p1 + p2 >= 0
 R211: 603 x1,2_4 - p1 + p2 <= 607
 R212: - 9 x1,2_9 - p1 + p2 >= 0
 R213: 603 x1,2_9 - p1 + p2 <= 612
 R214: - 11 x1,2_11 - p1 + p2 >= 0
 R215: 603 x1,2_11 - p1 + p2 <= 614
 R216: - 15 x1,2_15 - p1 + p2 >= 0
 R217: 603 x1,2_15 - p1 + p2 <= 618
 R218: - 22 x1,2_22 - p1 + p2 >= 0
 R219: 603 x1,2_22 - p1 + p2 <= 625
 R220: - 26 x1,2_26 - p1 + p2 >= 0
 R221: 603 x1,2_26 - p1 + p2 <= 629
 R222: - 35 x1,2_35 - p1 + p2 >= 0
 R223: 603 x1,2_35 - p1 + p2 <= 638
 R224: - 48 x1,2_48 - p1 + p2 >= 0
 R225: 603 x1,2_48 - p1 + p2 <= 651
 R226: - 57 x1,2_57 - p1 + p2 >= 0
 R227: 603 x1,2_57 - p1 + p2 <= 660
 R228: - 58 x1,2_58 - p1 + p2 >= 0
 R229: 603 x1,2_58 - p1 + p2 <= 661
 R230: - 73 x1,2_73 - p1 + p2 >= 0
 R231: 603 x1,2_73 - p1 + p2 <= 676
 R232: - 77 x1,2_77 - p1 + p2 >= 0
 R233: 603 x1,2_77 - p1 + p2 <= 680
 R234: - 82 x1,2_82 - p1 + p2 >= 0
 R235: 603 x1,2_82 - p1 + p2 <= 685
 R236: - 86 x1,2_86 - p1 + p2 >= 0
 R237: 603 x1,2_86 - p1 + p2 <= 689
 R238: p1 - p3 <= -1
 R239: - 4 x1,3_4 - p1 + p3 >= 0
 R240: 603 x1,3_4 - p1 + p3 <= 607
 R241: - 9 x1,3_9 - p1 + p3 >= 0
 R242: 603 x1,3_9 - p1 + p3 <= 612
 R243: - 11 x1,3_11 - p1 + p3 >= 0
 R244: 603 x1,3_11 - p1 + p3 <= 614
 R245: - 15 x1,3_15 - p1 + p3 >= 0
 R246: 603 x1,3_15 - p1 + p3 <= 618
 R247: - 22 x1,3_22 - p1 + p3 >= 0
 R248: 603 x1,3_22 - p1 + p3 <= 625
 R249: - 26 x1,3_26 - p1 + p3 >= 0
 R250: 603 x1,3_26 - p1 + p3 <= 629
 R251: - 35 x1,3_35 - p1 + p3 >= 0
 R252: 603 x1,3_35 - p1 + p3 <= 638
 R253: - 48 x1,3_48 - p1 + p3 >= 0
 R254: 603 x1,3_48 - p1 + p3 <= 651
 R255: - 57 x1,3_57 - p1 + p3 >= 0
 R256: 603 x1,3_57 - p1 + p3 <= 660
 R257: - 58 x1,3_58 - p1 + p3 >= 0
 R258: 603 x1,3_58 - p1 + p3 <= 661
 R259: - 73 x1,3_73 - p1 + p3 >= 0
 R260: 603 x1,3_73 - p1 + p3 <= 676
 R261: - 77 x1,3_77 - p1 + p3 >= 0
 R262: 603 x1,3_77 - p1 + p3 <= 680
 R263: - 82 x1,3_82 - p1 + p3 >= 0
 R264: 603 x1,3_82 - p1 + p3 <= 685
 R265: - 86 x1,3_86 - p1 + p3 >= 0
 R266: 603 x1,3_86 - p1 + p3 <= 689
 R267: p1 - p4 <= -1
 R268: - 4 x1,4_4 - p1 + p4 >= 0
 R269: 603 x1,4_4 - p1 + p4 <= 607
 R270: - 9 x1,4_9 - p1 + p4 >= 0
 R271: 603 x1,4_9 - p1 + p4 <= 612
 R272: - 11 x1,4_11 - p1 + p4 >= 0
 R273: 603 x1,4_11 - p1 + p4 <= 614
 R274: - 15 x1,4_15 - p1 + p4 >= 0
 R275: 603 x1,4_15 - p1 + p4 <= 618
 R276: - 22 x1,4_22 - p1 + p4 >= 0
 R277: 603 x1,4_22 - p1 + p4 <= 625
 R278: - 26 x1,4_26 - p1 + p4 >= 0
 R279: 603 x1,4_26 - p1 + p4 <= 629
 R280: - 35 x1,4_35 - p1 + p4 >= 0
 R281: 603 x1,4_35 - p1 + p4 <= 638
 R282: - 48 x1,4_48 - p1 + p4 >= 0
 R283: 603 x1,4_48 - p1 + p4 <= 651
 R284: - 57 x1,4_57 - p1 + p4 >= 0
 R285: 603 x1,4_57 - p1 + p4 <= 660
 R286: - 58 x1,4_58 - p1 + p4 >= 0
 R287: 603 x1,4_58 - p1 + p4 <= 661
 R288: - 73 x1,4_73 - p1 + p4 >= 0
 R289: 603 x1,4_73 - p1 + p4 <= 676
 R290: - 77 x1,4_77 - p1 + p4 >= 0
 R291: 603 x1,4_77 - p1 + p4 <= 680
 R292: - 82 x1,4_82 - p1 + p4 >= 0
 R293: 603 x1,4_82 - p1 + p4 <= 685
 R294: - 86 x1,4_86 - p1 + p4 >= 0
 R295: 603 x1,4_86 - p1 + p4 <= 689
 R296: p1 - p5 <= -1
 R297: - 4 x1,5_4 - p1 + p5 >= 0
 R298: 603 x1,5_4 - p1 + p5 <= 607
 R299: - 9 x1,5_9 - p1 + p5 >= 0
 R300: 603 x1,5_9 - p1 + p5 <= 612
 R301: - 11 x1,5_11 - p1 + p5 >= 0
 R302: 603 x1,5_11 - p1 + p5 <= 614
 R303: - 15 x1,5_15 - p1 + p5 >= 0
 R304: 603 x1,5_15 - p1 + p5 <= 618
 R305: - 22 x1,5_22 - p1 + p5 >= 0
 R306: 603 x1,5_22 - p1 + p5 <= 625
 R307: - 26 x1,5_26 - p1 + p5 >= 0
 R308: 603 x1,5_26 - p1 + p5 <= 629
 R309: - 35 x1,5_35 - p1 + p5 >= 0
 R310: 603 x1,5_35 - p1 + p5 <= 638
 R311: - 48 x1,5_48 - p1 + p5 >= 0
 R312: 603 x1,5_48 - p1 + p5 <= 651
 R313: - 57 x1,5_57 - p1 + p5 >= 0
 R314: 603 x1,5_57 - p1 + p5 <= 660
 R315: - 58 x1,5_58 - p1 + p5 >= 0
 R316: 603 x1,5_58 - p1 + p5 <= 661
 R317: - 73 x1,5_73 - p1 + p5 >= 0
 R318: 603 x1,5_73 - p1 + p5 <= 676
 R319: - 77 x1,5_77 - p1 + p5 >= 0
 R320: 603 x1,5_77 - p1 + p5 <= 680
 R321: - 82 x1,5_82 - p1 + p5 >= 0
 R322: 603 x1,5_82 - p1 + p5 <= 685
 R323: - 86 x1,5_86 - p1 + p5 >= 0
 R324: 603 x1,5_86 - p1 + p5 <= 689
 R325: p1 - p6 <= -1
 R326: - 4 x1,6_4 - p1 + p6 >= 0
 R327: 603 x1,6_4 - p1 + p6 <= 607
 R328: - 9 x1,6_9 - p1 + p6 >= 0
 R329: 603 x1,6_9 - p1 + p6 <= 612
 R330: - 11 x1,6_11 - p1 + p6 >= 0
 R331: 603 x1,6_11 - p1 + p6 <= 614
 R332: - 15 x1,6_15 - p1 + p6 >= 0
 R333: 603 x1,6_15 - p1 + p6 <= 618
 R334: - 22 x1,6_22 - p1 + p6 >= 0
 R335: 603 x1,6_22 - p1 + p6 <= 625
 R336: - 26 x1,6_26 - p1 + p6 >= 0
 R337: 603 x1,6_26 - p1 + p6 <= 629
 R338: - 35 x1,6_35 - p1 + p6 >= 0
 R339: 603 x1,6_35 - p1 + p6 <= 638
 R340: - 48 x1,6_48 - p1 + p6 >= 0
 R341: 603 x1,6_48 - p1 + p6 <= 651
 R342: - 57 x1,6_57 - p1 + p6 >= 0
 R343: 603 x1,6_57 - p1 + p6 <= 660
 R344: - 58 x1,6_58 - p1 + p6 >= 0
 R345: 603 x1,6_58 - p1 + p6 <= 661
 R346: - 73 x1,6_73 - p1 + p6 >= 0
 R347: 603 x1,6_73 - p1 + p6 <= 676
 R348: - 77 x1,6_77 - p1 + p6 >= 0
 R349: 603 x1,6_77 - p1 + p6 <= 680
 R350: - 82 x1,6_82 - p1 + p6 >= 0
 R351: 603 x1,6_82 - p1 + p6 <= 685
 R352: - 86 x1,6_86 - p1 + p6 >= 0
 R353: 603 x1,6_86 - p1 + p6 <= 689
 R354: p2 - p3 <= -1
 R355: - 4 x2,3_4 - p2 + p3 >= 0
 R356: 603 x2,3_4 - p2 + p3 <= 607
 R357: - 9 x2,3_9 - p2 + p3 >= 0
 R358: 603 x2,3_9 - p2 + p3 <= 612
 R359: - 11 x2,3_11 - p2 + p3 >= 0
 R360: 603 x2,3_11 - p2 + p3 <= 614
 R361: - 15 x2,3_15 - p2 + p3 >= 0
 R362: 603 x2,3_15 - p2 + p3 <= 618
 R363: - 22 x2,3_22 - p2 + p3 >= 0
 R364: 603 x2,3_22 - p2 + p3 <= 625
 R365: - 26 x2,3_26 - p2 + p3 >= 0
 R366: 603 x2,3_26 - p2 + p3 <= 629
 R367: - 35 x2,3_35 - p2 + p3 >= 0
 R368: 603 x2,3_35 - p2 + p3 <= 638
 R369: - 48 x2,3_48 - p2 + p3 >= 0
 R370: 603 x2,3_48 - p2 + p3 <= 651
 R371: - 57 x2,3_57 - p2 + p3 >= 0
 R372: 603 x2,3_57 - p2 + p3 <= 660
 R373: - 58 x2,3_58 - p2 + p3 >= 0
 R374: 603 x2,3_58 - p2 + p3 <= 661
 R375: - 73 x2,3_73 - p2 + p3 >= 0
 R376: 603 x2,3_73 - p2 + p3 <= 676
 R377: - 77 x2,3_77 - p2 + p3 >= 0
 R378: 603 x2,3_77 - p2 + p3 <= 680
 R379: - 82 x2,3_82 - p2 + p3 >= 0
 R380: 603 x2,3_82 - p2 + p3 <= 685
 R381: - 86 x2,3_86 - p2 + p3 >= 0
 R382: 603 x2,3_86 - p2 + p3 <= 689
 R383: p2 - p4 <= -1
 R384: - 4 x2,4_4 - p2 + p4 >= 0
 R385: 603 x2,4_4 - p2 + p4 <= 607
 R386: - 9 x2,4_9 - p2 + p4 >= 0
 R387: 603 x2,4_9 - p2 + p4 <= 612
 R388: - 11 x2,4_11 - p2 + p4 >= 0
 R389: 603 x2,4_11 - p2 + p4 <= 614
 R390: - 15 x2,4_15 - p2 + p4 >= 0
 R391: 603 x2,4_15 - p2 + p4 <= 618
 R392: - 22 x2,4_22 - p2 + p4 >= 0
 R393: 603 x2,4_22 - p2 + p4 <= 625
 R394: - 26 x2,4_26 - p2 + p4 >= 0
 R395: 603 x2,4_26 - p2 + p4 <= 629
 R396: - 35 x2,4_35 - p2 + p4 >= 0
 R397: 603 x2,4_35 - p2 + p4 <= 638
 R398: - 48 x2,4_48 - p2 + p4 >= 0
 R399: 603 x2,4_48 - p2 + p4 <= 651
 R400: - 57 x2,4_57 - p2 + p4 >= 0
 R401: 603 x2,4_57 - p2 + p4 <= 660
 R402: - 58 x2,4_58 - p2 + p4 >= 0
 R403: 603 x2,4_58 - p2 + p4 <= 661
 R404: - 73 x2,4_73 - p2 + p4 >= 0
 R405: 603 x2,4_73 - p2 + p4 <= 676
 R406: - 77 x2,4_77 - p2 + p4 >= 0
 R407: 603 x2,4_77 - p2 + p4 <= 680
 R408: - 82 x2,4_82 - p2 + p4 >= 0
 R409: 603 x2,4_82 - p2 + p4 <= 685
 R410: - 86 x2,4_86 - p2 + p4 >= 0
 R411: 603 x2,4_86 - p2 + p4 <= 689
 R412: p2 - p5 <= -1
 R413: - 4 x2,5_4 - p2 + p5 >= 0
 R414: 603 x2,5_4 - p2 + p5 <= 607
 R415: - 9 x2,5_9 - p2 + p5 >= 0
 R416: 603 x2,5_9 - p2 + p5 <= 612
 R417: - 11 x2,5_11 - p2 + p5 >= 0
 R418: 603 x2,5_11 - p2 + p5 <= 614
 R419: - 15 x2,5_15 - p2 + p5 >= 0
 R420: 603 x2,5_15 - p2 + p5 <= 618
 R421: - 22 x2,5_22 - p2 + p5 >= 0
 R422: 603 x2,5_22 - p2 + p5 <= 625
 R423: - 26 x2,5_26 - p2 + p5 >= 0
 R424: 603 x2,5_26 - p2 + p5 <= 629
 R425: - 35 x2,5_35 - p2 + p5 >= 0
 R426: 603 x2,5_35 - p2 + p5 <= 638
 R427: - 48 x2,5_48 - p2 + p5 >= 0
 R428: 603 x2,5_48 - p2 + p5 <= 651
 R429: - 57 x2,5_57 - p2 + p5 >= 0
 R430: 603 x2,5_57 - p2 + p5 <= 660
 R431: - 58 x2,5_58 - p2 + p5 >= 0
 R432: 603 x2,5_58 - p2 + p5 <= 661
 R433: - 73 x2,5_73 - p2 + p5 >= 0
 R434: 603 x2,5_73 - p2 + p5 <= 676
 R435: - 77 x2,5_77 - p2 + p5 >= 0
 R436: 603 x2,5_77 - p2 + p5 <= 680
 R437: - 82 x2,5_82 - p2 + p5 >= 0
 R438: 603 x2,5_82 - p2 + p5 <= 685
 R439: - 86 x2,5_86 - p2 + p5 >= 0
 R440: 603 x2,5_86 - p2 + p5 <= 689
 R441: p2 - p6 <= -1
 R442: - 4 x2,6_4 - p2 + p6 >= 0
 R443: 603 x2,6_4 - p2 + p6 <= 607
 R444: - 9 x2,6_9 - p2 + p6 >= 0
 R445: 603 x2,6_9 - p2 + p6 <= 612
 R446: - 11 x2,6_11 - p2 + p6 >= 0
 R447: 603 x2,6_11 - p2 + p6 <= 614
 R448: - 15 x2,6_15 - p2 + p6 >= 0
 R449: 603 x2,6_15 - p2 + p6 <= 618
 R450: - 22 x2,6_22 - p2 + p6 >= 0
 R451: 603 x2,6_22 - p2 + p6 <= 625
 R452: - 26 x2,6_26 - p2 + p6 >= 0
 R453: 603 x2,6_26 - p2 + p6 <= 629
 R454: - 35 x2,6_35 - p2 + p6 >= 0
 R455: 603 x2,6_35 - p2 + p6 <= 638
 R456: - 48 x2,6_48 - p2 + p6 >= 0
 R457: 603 x2,6_48 - p2 + p6 <= 651
 R458: - 57 x2,6_57 - p2 + p6 >= 0
 R459: 603 x2,6_57 - p2 + p6 <= 660
 R460: - 58 x2,6_58 - p2 + p6 >= 0
 R461: 603 x2,6_58 - p2 + p6 <= 661
 R462: - 73 x2,6_73 - p2 + p6 >= 0
 R463: 603 x2,6_73 - p2 + p6 <= 676
 R464: - 77 x2,6_77 - p2 + p6 >= 0
 R465: 603 x2,6_77 - p2 + p6 <= 680
 R466: - 82 x2,6_82 - p2 + p6 >= 0
 R467: 603 x2,6_82 - p2 + p6 <= 685
 R468: - 86 x2,6_86 - p2 + p6 >= 0
 R469: 603 x2,6_86 - p2 + p6 <= 689
 R470: p3 - p4 <= -1
 R471: - 4 x3,4_4 - p3 + p4 >= 0
 R472: 603 x3,4_4 - p3 + p4 <= 607
 R473: - 9 x3,4_9 - p3 + p4 >= 0
 R474: 603 x3,4_9 - p3 + p4 <= 612
 R475: - 11 x3,4_11 - p3 + p4 >= 0
 R476: 603 x3,4_11 - p3 + p4 <= 614
 R477: - 15 x3,4_15 - p3 + p4 >= 0
 R478: 603 x3,4_15 - p3 + p4 <= 618
 R479: - 22 x3,4_22 - p3 + p4 >= 0
 R480: 603 x3,4_22 - p3 + p4 <= 625
 R481: - 26 x3,4_26 - p3 + p4 >= 0
 R482: 603 x3,4_26 - p3 + p4 <= 629
 R483: - 35 x3,4_35 - p3 + p4 >= 0
 R484: 603 x3,4_35 - p3 + p4 <= 638
 R485: - 48 x3,4_48 - p3 + p4 >= 0
 R486: 603 x3,4_48 - p3 + p4 <= 651
 R487: - 57 x3,4_57 - p3 + p4 >= 0
 R488: 603 x3,4_57 - p3 + p4 <= 660
 R489: - 58 x3,4_58 - p3 + p4 >= 0
 R490: 603 x3,4_58 - p3 + p4 <= 661
 R491: - 73 x3,4_73 - p3 + p4 >= 0
 R492: 603 x3,4_73 - p3 + p4 <= 676
 R493: - 77 x3,4_77 - p3 + p4 >= 0
 R494: 603 x3,4_77 - p3 + p4 <= 680
 R495: - 82 x3,4_82 - p3 + p4 >= 0
 R496: 603 x3,4_82 - p3 + p4 <= 685
 R497: - 86 x3,4_86 - p3 + p4 >= 0
 R498: 603 x3,4_86 - p3 + p4 <= 689
 R499: p3 - p5 <= -1
 R500: - 4 x3,5_4 - p3 + p5 >= 0
 R501: 603 x3,5_4 - p3 + p5 <= 607
 R502: - 9 x3,5_9 - p3 + p5 >= 0
 R503: 603 x3,5_9 - p3 + p5 <= 612
 R504: - 11 x3,5_11 - p3 + p5 >= 0
 R505: 603 x3,5_11 - p3 + p5 <= 614
 R506: - 15 x3,5_15 - p3 + p5 >= 0
 R507: 603 x3,5_15 - p3 + p5 <= 618
 R508: - 22 x3,5_22 - p3 + p5 >= 0
 R509: 603 x3,5_22 - p3 + p5 <= 625
 R510: - 26 x3,5_26 - p3 + p5 >= 0
 R511: 603 x3,5_26 - p3 + p5 <= 629
 R512: - 35 x3,5_35 - p3 + p5 >= 0
 R513: 603 x3,5_35 - p3 + p5 <= 638
 R514: - 48 x3,5_48 - p3 + p5 >= 0
 R515: 603 x3,5_48 - p3 + p5 <= 651
 R516: - 57 x3,5_57 - p3 + p5 >= 0
 R517: 603 x3,5_57 - p3 + p5 <= 660
 R518: - 58 x3,5_58 - p3 + p5 >= 0
 R519: 603 x3,5_58 - p3 + p5 <= 661
 R520: - 73 x3,5_73 - p3 + p5 >= 0
 R521: 603 x3,5_73 - p3 + p5 <= 676
 R522: - 77 x3,5_77 - p3 + p5 >= 0
 R523: 603 x3,5_77 - p3 + p5 <= 680
 R524: - 82 x3,5_82 - p3 + p5 >= 0
 R525: 603 x3,5_82 - p3 + p5 <= 685
 R526: - 86 x3,5_86 - p3 + p5 >= 0
 R527: 603 x3,5_86 - p3 + p5 <= 689
 R528: p3 - p6 <= -1
 R529: - 4 x3,6_4 - p3 + p6 >= 0
 R530: 603 x3,6_4 - p3 + p6 <= 607
 R531: - 9 x3,6_9 - p3 + p6 >= 0
 R532: 603 x3,6_9 - p3 + p6 <= 612
 R533: - 11 x3,6_11 - p3 + p6 >= 0
 R534: 603 x3,6_11 - p3 + p6 <= 614
 R535: - 15 x3,6_15 - p3 + p6 >= 0
 R536: 603 x3,6_15 - p3 + p6 <= 618
 R537: - 22 x3,6_22 - p3 + p6 >= 0
 R538: 603 x3,6_22 - p3 + p6 <= 625
 R539: - 26 x3,6_26 - p3 + p6 >= 0
 R540: 603 x3,6_26 - p3 + p6 <= 629
 R541: - 35 x3,6_35 - p3 + p6 >= 0
 R542: 603 x3,6_35 - p3 + p6 <= 638
 R543: - 48 x3,6_48 - p3 + p6 >= 0
 R544: 603 x3,6_48 - p3 + p6 <= 651
 R545: - 57 x3,6_57 - p3 + p6 >= 0
 R546: 603 x3,6_57 - p3 + p6 <= 660
 R547: - 58 x3,6_58 - p3 + p6 >= 0
 R548: 603 x3,6_58 - p3 + p6 <= 661
 R549: - 73 x3,6_73 - p3 + p6 >= 0
 R550: 603 x3,6_73 - p3 + p6 <= 676
 R551: - 77 x3,6_77 - p3 + p6 >= 0
 R552: 603 x3,6_77 - p3 + p6 <= 680
 R553: - 82 x3,6_82 - p3 + p6 >= 0
 R554: 603 x3,6_82 - p3 + p6 <= 685
 R555: - 86 x3,6_86 - p3 + p6 >= 0
 R556: 603 x3,6_86 - p3 + p6 <= 689
 R557: p4 - p5 <= -1
 R558: - 4 x4,5_4 - p4 + p5 >= 0
 R559: 603 x4,5_4 - p4 + p5 <= 607
 R560: - 9 x4,5_9 - p4 + p5 >= 0
 R561: 603 x4,5_9 - p4 + p5 <= 612
 R562: - 11 x4,5_11 - p4 + p5 >= 0
 R563: 603 x4,5_11 - p4 + p5 <= 614
 R564: - 15 x4,5_15 - p4 + p5 >= 0
 R565: 603 x4,5_15 - p4 + p5 <= 618
 R566: - 22 x4,5_22 - p4 + p5 >= 0
 R567: 603 x4,5_22 - p4 + p5 <= 625
 R568: - 26 x4,5_26 - p4 + p5 >= 0
 R569: 603 x4,5_26 - p4 + p5 <= 629
 R570: - 35 x4,5_35 - p4 + p5 >= 0
 R571: 603 x4,5_35 - p4 + p5 <= 638
 R572: - 48 x4,5_48 - p4 + p5 >= 0
 R573: 603 x4,5_48 - p4 + p5 <= 651
 R574: - 57 x4,5_57 - p4 + p5 >= 0
 R575: 603 x4,5_57 - p4 + p5 <= 660
 R576: - 58 x4,5_58 - p4 + p5 >= 0
 R577: 603 x4,5_58 - p4 + p5 <= 661
 R578: - 73 x4,5_73 - p4 + p5 >= 0
 R579: 603 x4,5_73 - p4 + p5 <= 676
 R580: - 77 x4,5_77 - p4 + p5 >= 0
 R581: 603 x4,5_77 - p4 + p5 <= 680
 R582: - 82 x4,5_82 - p4 + p5 >= 0
 R583: 603 x4,5_82 - p4 + p5 <= 685
 R584: - 86 x4,5_86 - p4 + p5 >= 0
 R585: 603 x4,5_86 - p4 + p5 <= 689
 R586: p4 - p6 <= -1
 R587: - 4 x4,6_4 - p4 + p6 >= 0
 R588: 603 x4,6_4 - p4 + p6 <= 607
 R589: - 9 x4,6_9 - p4 + p6 >= 0
 R590: 603 x4,6_9 - p4 + p6 <= 612
 R591: - 11 x4,6_11 - p4 + p6 >= 0
 R592: 603 x4,6_11 - p4 + p6 <= 614
 R593: - 15 x4,6_15 - p4 + p6 >= 0
 R594: 603 x4,6_15 - p4 + p6 <= 618
 R595: - 22 x4,6_22 - p4 + p6 >= 0
 R596: 603 x4,6_22 - p4 + p6 <= 625
 R597: - 26 x4,6_26 - p4 + p6 >= 0
 R598: 603 x4,6_26 - p4 + p6 <= 629
 R599: - 35 x4,6_35 - p4 + p6 >= 0
 R600: 603 x4,6_35 - p4 + p6 <= 638
 R601: - 48 x4,6_48 - p4 + p6 >= 0
 R602: 603 x4,6_48 - p4 + p6 <= 651
 R603: - 57 x4,6_57 - p4 + p6 >= 0
 R604: 603 x4,6_57 - p4 + p6 <= 660
 R605: - 58 x4,6_58 - p4 + p6 >= 0
 R606: 603 x4,6_58 - p4 + p6 <= 661
 R607: - 73 x4,6_73 - p4 + p6 >= 0
 R608: 603 x4,6_73 - p4 + p6 <= 676
 R609: - 77 x4,6_77 - p4 + p6 >= 0
 R610: 603 x4,6_77 - p4 + p6 <= 680
 R611: - 82 x4,6_82 - p4 + p6 >= 0
 R612: 603 x4,6_82 - p4 + p6 <= 685
 R613: - 86 x4,6_86 - p4 + p6 >= 0
 R614: 603 x4,6_86 - p4 + p6 <= 689
 R615: p5 - p6 <= -1
 R616: - 4 x5,6_4 - p5 + p6 >= 0
 R617: 603 x5,6_4 - p5 + p6 <= 607
 R618: - 9 x5,6_9 - p5 + p6 >= 0
 R619: 603 x5,6_9 - p5 + p6 <= 612
 R620: - 11 x5,6_11 - p5 + p6 >= 0
 R621: 603 x5,6_11 - p5 + p6 <= 614
 R622: - 15 x5,6_15 - p5 + p6 >= 0
 R623: 603 x5,6_15 - p5 + p6 <= 618
 R624: - 22 x5,6_22 - p5 + p6 >= 0
 R625: 603 x5,6_22 - p5 + p6 <= 625
 R626: - 26 x5,6_26 - p5 + p6 >= 0
 R627: 603 x5,6_26 - p5 + p6 <= 629
 R628: - 35 x5,6_35 - p5 + p6 >= 0
 R629: 603 x5,6_35 - p5 + p6 <= 638
 R630: - 48 x5,6_48 - p5 + p6 >= 0
 R631: 603 x5,6_48 - p5 + p6 <= 651
 R632: - 57 x5,6_57 - p5 + p6 >= 0
 R633: 603 x5,6_57 - p5 + p6 <= 660
 R634: - 58 x5,6_58 - p5 + p6 >= 0
 R635: 603 x5,6_58 - p5 + p6 <= 661
 R636: - 73 x5,6_73 - p5 + p6 >= 0
 R637: 603 x5,6_73 - p5 + p6 <= 676
 R638: - 77 x5,6_77 - p5 + p6 >= 0
 R639: 603 x5,6_77 - p5 + p6 <= 680
 R640: - 82 x5,6_82 - p5 + p6 >= 0
 R641: 603 x5,6_82 - p5 + p6 <= 685
 R642: - 86 x5,6_86 - p5 + p6 >= 0
 R643: 603 x5,6_86 - p5 + p6 <= 689
Bounds
Binaries
 x0,1_4 x0,1_9 x0,1_11 x0,1_15 x0,1_22 x0,1_26 x0,1_35 x0,1_48 x0,1_57
 x0,1_58 x0,1_73 x0,1_77 x0,1_82 x0,1_86 x0,2_4 x0,2_9 x0,2_11 x0,2_15
 x0,2_22 x0,2_26 x0,2_35 x0,2_48 x0,2_57 x0,2_58 x0,2_73 x0,2_77 x0,2_82
 x0,2_86 x0,3_4 x0,3_9 x0,3_11 x0,3_15 x0,3_22 x0,3_26 x0,3_35 x0,3_48
 x0,3_57 x0,3_58 x0,3_73 x0,3_77 x0,3_82 x0,3_86 x0,4_4 x0,4_9 x0,4_11
 x0,4_15 x0,4_22 x0,4_26 x0,4_35 x0,4_48 x0,4_57 x0,4_58 x0,4_73 x0,4_77
 x0,4_82 x0,4_86 x0,5_4 x0,5_9 x0,5_11 x0,5_15 x0,5_22 x0,5_26 x0,5_35
 x0,5_48 x0,5_57 x0,5_58 x0,5_73 x0,5_77 x0,5_82 x0,5_86 x0,6_4 x0,6_9
 x0,6_11 x0,6_15 x0,6_22 x0,6_26 x0,6_35 x0,6_48 x0,6_57 x0,6_58 x0,6_73
 x0,6_77 x0,6_82 x0,6_86 x1,2_4 x1,2_9 x1,2_11 x1,2_15 x1,2_22 x1,2_26
 x1,2_35 x1,2_48 x1,2_57 x1,2_58 x1,2_73 x1,2_77 x1,2_82 x1,2_86 x1,3_4
 x1,3_9 x1,3_11 x1,3_15 x1,3_22 x1,3_26 x1,3_35 x1,3_48 x1,3_57 x1,3_58
 x1,3_73 x1,3_77 x1,3_82 x1,3_86 x1,4_4 x1,4_9 x1,4_11 x1,4_15 x1,4_22
 x1,4_26 x1,4_35 x1,4_48 x1,4_57 x1,4_58 x1,4_73 x1,4_77 x1,4_82 x1,4_86
 x1,5_4 x1,5_9 x1,5_11 x1,5_15 x1,5_22 x1,5_26 x1,5_35 x1,5_48 x1,5_57
 x1,5_58 x1,5_73 x1,5_77 x1,5_82 x1,5_86 x1,6_4 x1,6_9 x1,6_11 x1,6_15
 x1,6_22 x1,6_26 x1,6_35 x1,6_48 x1,6_57 x1,6_58 x1,6_73 x1,6_77 x1,6_82
 x1,6_86 x2,3_4 x2,3_9 x2,3_11 x2,3_15 x2,3_22 x2,3_26 x2,3_35 x2,3_48
 x2,3_57 x2,3_58 x2,3_73 x2,3_77 x2,3_82 x2,3_86 x2,4_4 x2,4_9 x2,4_11
 x2,4_15 x2,4_22 x2,4_26 x2,4_35 x2,4_48 x2,4_57 x2,4_58 x2,4_73 x2,4_77
 x2,4_82 x2,4_86 x2,5_4 x2,5_9 x2,5_11 x2,5_15 x2,5_22 x2,5_26 x2,5_35
 x2,5_48 x2,5_57 x2,5_58 x2,5_73 x2,5_77 x2,5_82 x2,5_86 x2,6_4 x2,6_9
 x2,6_11 x2,6_15 x2,6_22 x2,6_26 x2,6_35 x2,6_48 x2,6_57 x2,6_58 x2,6_73
 x2,6_77 x2,6_82 x2,6_86 x3,4_4 x3,4_9 x3,4_11 x3,4_15 x3,4_22 x3,4_26
 x3,4_35 x3,4_48 x3,4_57 x3,4_58 x3,4_73 x3,4_77 x3,4_82 x3,4_86 x3,5_4
 x3,5_9 x3,5_11 x3,5_15 x3,5_22 x3,5_26 x3,5_35 x3,5_48 x3,5_57 x3,5_58
 x3,5_73 x3,5_77 x3,5_82 x3,5_86 x3,6_4 x3,6_9 x3,6_11 x3,6_15 x3,6_22
 x3,6_26 x3,6_35 x3,6_48 x3,6_57 x3,6_58 x3,6_73 x3,6_77 x3,6_82 x3,6_86
 x4,5_4 x4,5_9 x4,5_11 x4,5_15 x4,5_22 x4,5_26 x4,5_35 x4,5_48 x4,5_57
 x4,5_58 x4,5_73 x4,5_77 x4,5_82 x4,5_86 x4,6_4 x4,6_9 x4,6_11 x4,6_15
 x4,6_22 x4,6_26 x4,6_35 x4,6_48 x4,6_57 x4,6_58 x4,6_73 x4,6_77 x4,6_82
 x4,6_86 x5,6_4 x5,6_9 x5,6_11 x5,6_15 x5,6_22 x5,6_26 x5,6_35 x5,6_48
 x5,6_57 x5,6_58 x5,6_73 x5,6_77 x5,6_82 x5,6_86
Generals
 p0 p1 p2 p3 p4 p5 p6
End
